17	4
23	22	22	23	
0	0	0	0	0	3	2	3	4	
7	0	10	0	5	3	5	6	17	
9	10	5	5	5	1	17	
8	5	5	0	1	3	17	17	17	
9	0	10	4	4	3	7	9	12	
125	1	0	8	7	2	17	17	
225	8	4	10	0	1	8	
75	6	0	2	2	2	14	17	
50	10	5	6	7	2	10	11	
150	10	6	3	0	1	15	
50	0	3	2	0	1	17	
175	0	7	8	2	3	13	16	17	
3	1	0	0	3	1	17	
7	9	4	7	5	3	17	17	17	
6	5	0	0	5	1	17	
4	0	8	6	3	2	17	17	
0	0	0	0	0	0	
